data/solutions/recovery/wellformed/intermediate/binding/wellformed_intermediate_instance73/71.sol
Elapsed time: 0.06
Upper bound: 4620.0
Planning weighted value: 213492885.0
C[0]=4620.0
C[1]=4471.0
C[2]=4464.0
C[3]=4409.0
C[4]=4289.0
C[5]=4235.0
C[6]=4013.0
C[7]=3999.0
C[8]=3414.0
C[9]=3162.0
C[10]=3148.0
C[11]=3095.0
C[12]=3078.0
C[13]=2118.0
C[14]=2047.0
C[15]=0.0
y[0]=0
y[1]=4
y[2]=13
y[3]=4
y[4]=1
y[5]=5
y[6]=14
y[7]=11
y[8]=7
y[9]=8
y[10]=5
y[11]=2
y[12]=8
y[13]=5
y[14]=11
y[15]=12
y[16]=2
y[17]=0
y[18]=6
y[19]=14
y[20]=3
y[21]=3
y[22]=10
y[23]=5
y[24]=9
y[25]=0
y[26]=11
y[27]=10
y[28]=13
y[29]=1
y[30]=6
y[31]=4
y[32]=11
y[33]=7
y[34]=5
y[35]=7
y[36]=8
y[37]=2
y[38]=0
y[39]=14
y[40]=6
y[41]=2
y[42]=11
y[43]=10
y[44]=13
y[45]=9
y[46]=14
y[47]=10
y[48]=0
y[49]=12
y[50]=6
y[51]=5
y[52]=4
y[53]=14
y[54]=13
y[55]=1
y[56]=13
y[57]=11
y[58]=1
y[59]=11
y[60]=2
y[61]=14
y[62]=5
y[63]=7
y[64]=5
y[65]=7
y[66]=3
y[67]=4
y[68]=6
y[69]=7
y[70]=2
y[71]=2
y[72]=2
y[73]=7
y[74]=0
y[75]=12
y[76]=11
y[77]=9
y[78]=0
y[79]=10
y[80]=8
y[81]=0
y[82]=6
y[83]=8
y[84]=0
y[85]=10
y[86]=3
y[87]=0
y[88]=1
y[89]=2
y[90]=12
y[91]=1
y[92]=3
y[93]=9
y[94]=11
y[95]=2
y[96]=6
y[97]=6
y[98]=4
y[99]=9
y[100]=3
y[101]=2
y[102]=5
y[103]=4
y[104]=8
y[105]=1
y[106]=2
y[107]=7
